problem_generation/data/GISP/train/er_n=60_m=1042_p=0.60_SET2_setparam=100.00_alpha=0.50_373.lp
maximize
OBJ:100x0 + 100x1 + 100x2 + 100x3 + 100x4 + 100x5 + 100x6 + 100x7 + 100x8 + 100x9 + 100x10 + 100x11 + 100x12 + 100x13 + 100x14 + 100x15 + 100x16 + 100x17 + 100x18 + 100x19 + 100x20 + 100x21 + 100x22 + 100x23 + 100x24 + 100x25 + 100x26 + 100x27 + 100x28 + 100x29 + 100x30 + 100x31 + 100x32 + 100x33 + 100x34 + 100x35 + 100x36 + 100x37 + 100x38 + 100x39 + 100x40 + 100x41 + 100x42 + 100x43 + 100x44 + 100x45 + 100x46 + 100x47 + 100x48 + 100x49 + 100x50 + 100x51 + 100x52 + 100x53 + 100x54 + 100x55 + 100x56 + 100x57 + 100x58 + 100x59 - y15_21 - y55_57 - y18_26 - y15_39 - y17_58 - y18_35 - y29_32 - y0_23 - y6_57 - y21_55 - y10_27 - y10_36 - y41_51 - y10_45 - y33_56 - y14_15 - y22_28 - y2_59 - y3_33 - y47_57 - y6_34 - y48_49 - y21_41 - y6_52 - y21_50 - y33_42 - y2_45 - y25_47 - y10_58 - y14_19 - y13_51 - y14_28 - y3_37 - y28_39 - y47_52 - y5_55 - y9_53 - y29_40 - y48_53 - y6_56 - y21_54 - y2_13 - y25_33 - y32_41 - y43_50 - y22_27 - y3_23 - y17_25 - y36_38 - y17_43 - y28_43 - y28_52 - y6_15 - y9_48 - y6_24 - y29_35 - y40_44 - y6_51 - y2_8 - y20_53 - y31_53 - y54_55 - y32_36 - y3_9 - y43_45 - y35_41 - y14_18 - y16_37 - y13_50 - y24_59 - y5_27 - y17_38 - y17_47 - y28_47 - y9_43 - y17_56 - y50_53 - y6_37 - y39_43 - y20_48 - y10_25 - y54_59 - y3_4 - y4_58 - y24_36 - y32_49 - y43_49 - y24_45 - y35_45 - y32_58 - y24_54 - y35_54 - y16_50 - y9_11 - y5_22 - y36_37 - y17_33 - y9_29 - y28_42 - y5_49 - y9_47 - y5_58 - y42_44 - y50_57 - y21_30 - y0_56 - y31_34 - y39_56 - y20_52 - y31_52 - y12_48 - y13_22 - y4_53 - y24_31 - y32_44 - y13_49 - y16_45 - y5_8 - y16_54 - y17_28 - y9_24 - y5_35 - y28_37 - y5_44 - y30_46 - y8_55 - y19_55 - y0_51 - y11_51 - y39_42 - y39_51 - y31_47 - y31_56 - y13_17 - y4_57 - y32_39 - y13_35 - y24_35 - y13_44 - y24_44 - y16_40 - y9_10 - y9_19 - y26_53 - y5_30 - y18_58 - y27_36 - y42_43 - y27_54 - y11_37 - y8_50 - y11_46 - y20_24 - y0_55 - y11_55 - y4_25 - y31_51 - y4_43 - y1_19 - y53_57 - y34_53 - y45_53 - y1_37 - y16_35 - y5_25 - y15_57 - y26_57 - y38_59 - y49_59 - y19_27 - y19_36 - y11_32 - y11_41 - y19_54 - y0_59 - y12_24 - y20_37 - y31_37 - y23_33 - y3_51 - y57_58 - y7_48 - y7_57 - y8_22 - y27_35 - y30_31 - y11_27 - y19_40 - y4_6 - y0_54 - y23_28 - y23_37 - y1_18 - y37_39 - y22_50 - y45_52 - y3_46 - y15_20 - y15_29 - y18_25 - y15_38 - y38_40 - y7_34 - y8_35 - y0_40 - y12_14 - y41_50 - y52_59 - y4_19 - y2_58 - y34_38 - y1_13 - y3_32 - y3_41 - y14_41 - y34_56 - y37_43 - y3_50 - y3_59 - y14_59 - y7_20 - y18_20 - y26_42 - y7_38 - y18_38 - y15_51 - y18_47 - y8_12 - y0_8 - y7_56 - y19_21 - y48_57 - y40_53 - y8_30 - y0_35 - y11_35 - y52_54 - y10_48 - y25_46 - y10_57 - y33_59 - y2_53 - y14_27 - y22_40 - y34_42 - y37_38 - y34_51 - y14_45 - y15_19 - y15_37 - y18_33 - y29_39 - y11_12 - y40_48 - y19_25 - y21_44 - y21_53 - y11_30 - y10_34 - y4_9 - y3_13 - y25_59 - y14_40 - y3_49 - y14_49 - y55_59 - y28_51 - y7_28 - y6_41 - y11_16 - y40_52 - y6_59 - y10_20 - y41_44 - y2_34 - y25_36 - y44_49 - y25_45 - y2_52 - y3_17 - y32_53 - y3_26 - y14_26 - y13_58 - y36_41 - y15_18 - y17_46 - y28_46 - y7_23 - y9_51 - y6_27 - y21_25 - y29_38 - y48_51 - y6_45 - y21_43 - y29_56 - y2_20 - y10_33 - y2_38 - y51_52 - y43_48 - y22_25 - y2_56 - y28_41 - y36_54 - y9_37 - y5_48 - y17_50 - y9_55 - y6_31 - y29_33 - y29_51 - y25_26 - y2_42 - y35_39 - y3_16 - y43_52 - y35_48 - y3_25 - y13_57 - y17_18 - y5_34 - y5_43 - y6_8 - y17_45 - y21_33 - y21_42 - y2_10 - y20_46 - y31_46 - y39_59 - y20_55 - y54_57 - y32_38 - y1_41 - y43_56 - y16_39 - y1_50 - y24_52 - y5_20 - y5_38 - y17_40 - y9_36 - y6_21 - y58_59 - y42_51 - y21_28 - y10_18 - y39_54 - y20_59 - y31_59 - y13_20 - y32_33 - y13_29 - y13_38 - y1_54 - y16_52 - y46_53 - y36_39 - y38_58 - y5_33 - y17_35 - y28_35 - y5_42 - y27_48 - y42_46 - y27_57 - y42_55 - y39_40 - y31_36 - y10_13 - y23_32 - y20_45 - y2_18 - y20_54 - y31_54 - y54_56 - y13_15 - y4_46 - y43_46 - y1_40 - y24_51 - y16_47 - y1_58 - y17_30 - y9_35 - y27_52 - y0_44 - y30_57 - y0_53 - y11_53 - y31_40 - y12_36 - y31_49 - y12_45 - y23_45 - y4_41 - y12_54 - y53_55 - y35_37 - y5_14 - y15_46 - y15_55 - y26_55 - y18_51 - y27_29 - y8_34 - y8_43 - y42_45 - y11_39 - y19_52 - y42_54 - y0_48 - y20_26 - y0_57 - y20_35 - y4_18 - y23_31 - y12_40 - y1_12 - y34_55 - y16_28 - y3_58 - y46_47 - y15_41 - y26_41 - y5_18 - y26_59 - y7_55 - y27_42 - y11_25 - y30_38 - y27_51 - y19_47 - y30_47 - y8_56 - y30_56 - y11_52 - y12_17 - y20_30 - y33_58 - y34_41 - y1_16 - y13_18 - y22_48 - y34_59 - y45_59 - y14_53 - y46_51 - y7_32 - y18_32 - y18_41 - y7_50 - y18_59 - y0_20 - y11_29 - y11_38 - y41_48 - y4_17 - y33_53 - y12_30 - y4_35 - y1_11 - y37_41 - y3_48 - y14_48 - y15_31 - y26_31 - y37_49 - y26_40 - y18_36 - y26_49 - y0_15 - y11_24 - y19_37 - y11_33 - y41_52 - y10_46 - y44_57 - y1_6 - y3_34 - y34_49 - y14_43 - y15_17 - y18_22 - y7_31 - y26_44 - y18_40 - y0_1 - y18_49 - y40_46 - y30_32 - y33_34 - y41_47 - y4_7 - y33_43 - y52_56 - y4_16 - y10_50 - y44_52 - y2_46 - y34_35 - y14_47
 Subject to
C1: x0+x1-y0_1 <=1 
C2: x0+x4 <=1 
C3: x0+x5 <=1 
C4: x0+x7 <=1 
C5: x0+x8-y0_8 <=1 
C6: x0+x11 <=1 
C7: x0+x13 <=1 
C8: x0+x15-y0_15 <=1 
C9: x0+x17 <=1 
C10: x0+x19 <=1 
C11: x0+x20-y0_20 <=1 
C12: x0+x23-y0_23 <=1 
C13: x0+x24 <=1 
C14: x0+x26 <=1 
C15: x0+x32 <=1 
C16: x0+x35-y0_35 <=1 
C17: x0+x39 <=1 
C18: x0+x40-y0_40 <=1 
C19: x0+x43 <=1 
C20: x0+x44-y0_44 <=1 
C21: x0+x45 <=1 
C22: x0+x48-y0_48 <=1 
C23: x0+x50 <=1 
C24: x0+x51-y0_51 <=1 
C25: x0+x53-y0_53 <=1 
C26: x0+x54-y0_54 <=1 
C27: x0+x55-y0_55 <=1 
C28: x0+x56-y0_56 <=1 
C29: x0+x57-y0_57 <=1 
C30: x0+x59-y0_59 <=1 
C31: x1+x2 <=1 
C32: x1+x5 <=1 
C33: x1+x6-y1_6 <=1 
C34: x1+x10 <=1 
C35: x1+x11-y1_11 <=1 
C36: x1+x12-y1_12 <=1 
C37: x1+x13-y1_13 <=1 
C38: x1+x16-y1_16 <=1 
C39: x1+x18-y1_18 <=1 
C40: x1+x19-y1_19 <=1 
C41: x1+x20 <=1 
C42: x1+x22 <=1 
C43: x1+x25 <=1 
C44: x1+x26 <=1 
C45: x1+x28 <=1 
C46: x1+x30 <=1 
C47: x1+x32 <=1 
C48: x1+x33 <=1 
C49: x1+x34 <=1 
C50: x1+x37-y1_37 <=1 
C51: x1+x40-y1_40 <=1 
C52: x1+x41-y1_41 <=1 
C53: x1+x42 <=1 
C54: x1+x46 <=1 
C55: x1+x48 <=1 
C56: x1+x50-y1_50 <=1 
C57: x1+x51 <=1 
C58: x1+x54-y1_54 <=1 
C59: x1+x55 <=1 
C60: x1+x58-y1_58 <=1 
C61: x1+x59 <=1 
C62: x2+x3 <=1 
C63: x2+x4 <=1 
C64: x2+x6 <=1 
C65: x2+x8-y2_8 <=1 
C66: x2+x10-y2_10 <=1 
C67: x2+x11 <=1 
C68: x2+x13-y2_13 <=1 
C69: x2+x18-y2_18 <=1 
C70: x2+x20-y2_20 <=1 
C71: x2+x23 <=1 
C72: x2+x27 <=1 
C73: x2+x28 <=1 
C74: x2+x29 <=1 
C75: x2+x32 <=1 
C76: x2+x34-y2_34 <=1 
C77: x2+x35 <=1 
C78: x2+x36 <=1 
C79: x2+x37 <=1 
C80: x2+x38-y2_38 <=1 
C81: x2+x39 <=1 
C82: x2+x40 <=1 
C83: x2+x42-y2_42 <=1 
C84: x2+x43 <=1 
C85: x2+x45-y2_45 <=1 
C86: x2+x46-y2_46 <=1 
C87: x2+x47 <=1 
C88: x2+x48 <=1 
C89: x2+x49 <=1 
C90: x2+x50 <=1 
C91: x2+x51 <=1 
C92: x2+x52-y2_52 <=1 
C93: x2+x53-y2_53 <=1 
C94: x2+x56-y2_56 <=1 
C95: x2+x58-y2_58 <=1 
C96: x2+x59-y2_59 <=1 
C97: x3+x4-y3_4 <=1 
C98: x3+x7 <=1 
C99: x3+x9-y3_9 <=1 
C100: x3+x13-y3_13 <=1 
C101: x3+x14 <=1 
C102: x3+x16-y3_16 <=1 
C103: x3+x17-y3_17 <=1 
C104: x3+x18 <=1 
C105: x3+x19 <=1 
C106: x3+x20 <=1 
C107: x3+x23-y3_23 <=1 
C108: x3+x24 <=1 
C109: x3+x25-y3_25 <=1 
C110: x3+x26-y3_26 <=1 
C111: x3+x27 <=1 
C112: x3+x28 <=1 
C113: x3+x31 <=1 
C114: x3+x32-y3_32 <=1 
C115: x3+x33-y3_33 <=1 
C116: x3+x34-y3_34 <=1 
C117: x3+x37-y3_37 <=1 
C118: x3+x39 <=1 
C119: x3+x41-y3_41 <=1 
C120: x3+x42 <=1 
C121: x3+x44 <=1 
C122: x3+x45 <=1 
C123: x3+x46-y3_46 <=1 
C124: x3+x47 <=1 
C125: x3+x48-y3_48 <=1 
C126: x3+x49-y3_49 <=1 
C127: x3+x50-y3_50 <=1 
C128: x3+x51-y3_51 <=1 
C129: x3+x52 <=1 
C130: x3+x53 <=1 
C131: x3+x55 <=1 
C132: x3+x56 <=1 
C133: x3+x57 <=1 
C134: x3+x58-y3_58 <=1 
C135: x3+x59-y3_59 <=1 
C136: x4+x6-y4_6 <=1 
C137: x4+x7-y4_7 <=1 
C138: x4+x8 <=1 
C139: x4+x9-y4_9 <=1 
C140: x4+x10 <=1 
C141: x4+x11 <=1 
C142: x4+x12 <=1 
C143: x4+x14 <=1 
C144: x4+x16-y4_16 <=1 
C145: x4+x17-y4_17 <=1 
C146: x4+x18-y4_18 <=1 
C147: x4+x19-y4_19 <=1 
C148: x4+x20 <=1 
C149: x4+x21 <=1 
C150: x4+x25-y4_25 <=1 
C151: x4+x26 <=1 
C152: x4+x27 <=1 
C153: x4+x29 <=1 
C154: x4+x32 <=1 
C155: x4+x34 <=1 
C156: x4+x35-y4_35 <=1 
C157: x4+x38 <=1 
C158: x4+x39 <=1 
C159: x4+x41-y4_41 <=1 
C160: x4+x43-y4_43 <=1 
C161: x4+x46-y4_46 <=1 
C162: x4+x47 <=1 
C163: x4+x50 <=1 
C164: x4+x53-y4_53 <=1 
C165: x4+x55 <=1 
C166: x4+x56 <=1 
C167: x4+x57-y4_57 <=1 
C168: x4+x58-y4_58 <=1 
C169: x5+x6 <=1 
C170: x5+x8-y5_8 <=1 
C171: x5+x11 <=1 
C172: x5+x14-y5_14 <=1 
C173: x5+x16 <=1 
C174: x5+x18-y5_18 <=1 
C175: x5+x20-y5_20 <=1 
C176: x5+x21 <=1 
C177: x5+x22-y5_22 <=1 
C178: x5+x23 <=1 
C179: x5+x24 <=1 
C180: x5+x25-y5_25 <=1 
C181: x5+x26 <=1 
C182: x5+x27-y5_27 <=1 
C183: x5+x28 <=1 
C184: x5+x29 <=1 
C185: x5+x30-y5_30 <=1 
C186: x5+x31 <=1 
C187: x5+x32 <=1 
C188: x5+x33-y5_33 <=1 
C189: x5+x34-y5_34 <=1 
C190: x5+x35-y5_35 <=1 
C191: x5+x36 <=1 
C192: x5+x37 <=1 
C193: x5+x38-y5_38 <=1 
C194: x5+x39 <=1 
C195: x5+x40 <=1 
C196: x5+x42-y5_42 <=1 
C197: x5+x43-y5_43 <=1 
C198: x5+x44-y5_44 <=1 
C199: x5+x48-y5_48 <=1 
C200: x5+x49-y5_49 <=1 
C201: x5+x53 <=1 
C202: x5+x54 <=1 
C203: x5+x55-y5_55 <=1 
C204: x5+x56 <=1 
C205: x5+x58-y5_58 <=1 
C206: x5+x59 <=1 
C207: x6+x8-y6_8 <=1 
C208: x6+x10 <=1 
C209: x6+x11 <=1 
C210: x6+x12 <=1 
C211: x6+x15-y6_15 <=1 
C212: x6+x17 <=1 
C213: x6+x19 <=1 
C214: x6+x21-y6_21 <=1 
C215: x6+x22 <=1 
C216: x6+x23 <=1 
C217: x6+x24-y6_24 <=1 
C218: x6+x27-y6_27 <=1 
C219: x6+x29 <=1 
C220: x6+x31-y6_31 <=1 
C221: x6+x33 <=1 
C222: x6+x34-y6_34 <=1 
C223: x6+x36 <=1 
C224: x6+x37-y6_37 <=1 
C225: x6+x38 <=1 
C226: x6+x39 <=1 
C227: x6+x41-y6_41 <=1 
C228: x6+x42 <=1 
C229: x6+x43 <=1 
C230: x6+x45-y6_45 <=1 
C231: x6+x47 <=1 
C232: x6+x49 <=1 
C233: x6+x50 <=1 
C234: x6+x51-y6_51 <=1 
C235: x6+x52-y6_52 <=1 
C236: x6+x55 <=1 
C237: x6+x56-y6_56 <=1 
C238: x6+x57-y6_57 <=1 
C239: x6+x58 <=1 
C240: x6+x59-y6_59 <=1 
C241: x7+x10 <=1 
C242: x7+x12 <=1 
C243: x7+x13 <=1 
C244: x7+x16 <=1 
C245: x7+x17 <=1 
C246: x7+x20-y7_20 <=1 
C247: x7+x22 <=1 
C248: x7+x23-y7_23 <=1 
C249: x7+x24 <=1 
C250: x7+x25 <=1 
C251: x7+x26 <=1 
C252: x7+x28-y7_28 <=1 
C253: x7+x29 <=1 
C254: x7+x31-y7_31 <=1 
C255: x7+x32-y7_32 <=1 
C256: x7+x33 <=1 
C257: x7+x34-y7_34 <=1 
C258: x7+x36 <=1 
C259: x7+x37 <=1 
C260: x7+x38-y7_38 <=1 
C261: x7+x41 <=1 
C262: x7+x43 <=1 
C263: x7+x44 <=1 
C264: x7+x45 <=1 
C265: x7+x46 <=1 
C266: x7+x47 <=1 
C267: x7+x48-y7_48 <=1 
C268: x7+x50-y7_50 <=1 
C269: x7+x51 <=1 
C270: x7+x55-y7_55 <=1 
C271: x7+x56-y7_56 <=1 
C272: x7+x57-y7_57 <=1 
C273: x8+x12-y8_12 <=1 
C274: x8+x13 <=1 
C275: x8+x15 <=1 
C276: x8+x16 <=1 
C277: x8+x18 <=1 
C278: x8+x20 <=1 
C279: x8+x21 <=1 
C280: x8+x22-y8_22 <=1 
C281: x8+x26 <=1 
C282: x8+x27 <=1 
C283: x8+x30-y8_30 <=1 
C284: x8+x34-y8_34 <=1 
C285: x8+x35-y8_35 <=1 
C286: x8+x36 <=1 
C287: x8+x38 <=1 
C288: x8+x40 <=1 
C289: x8+x41 <=1 
C290: x8+x42 <=1 
C291: x8+x43-y8_43 <=1 
C292: x8+x45 <=1 
C293: x8+x46 <=1 
C294: x8+x50-y8_50 <=1 
C295: x8+x53 <=1 
C296: x8+x54 <=1 
C297: x8+x55-y8_55 <=1 
C298: x8+x56-y8_56 <=1 
C299: x8+x57 <=1 
C300: x8+x58 <=1 
C301: x8+x59 <=1 
C302: x9+x10-y9_10 <=1 
C303: x9+x11-y9_11 <=1 
C304: x9+x16 <=1 
C305: x9+x18 <=1 
C306: x9+x19-y9_19 <=1 
C307: x9+x21 <=1 
C308: x9+x23 <=1 
C309: x9+x24-y9_24 <=1 
C310: x9+x29-y9_29 <=1 
C311: x9+x30 <=1 
C312: x9+x31 <=1 
C313: x9+x32 <=1 
C314: x9+x34 <=1 
C315: x9+x35-y9_35 <=1 
C316: x9+x36-y9_36 <=1 
C317: x9+x37-y9_37 <=1 
C318: x9+x38 <=1 
C319: x9+x40 <=1 
C320: x9+x43-y9_43 <=1 
C321: x9+x44 <=1 
C322: x9+x45 <=1 
C323: x9+x47-y9_47 <=1 
C324: x9+x48-y9_48 <=1 
C325: x9+x50 <=1 
C326: x9+x51-y9_51 <=1 
C327: x9+x52 <=1 
C328: x9+x53-y9_53 <=1 
C329: x9+x55-y9_55 <=1 
C330: x9+x58 <=1 
C331: x9+x59 <=1 
C332: x10+x13-y10_13 <=1 
C333: x10+x15 <=1 
C334: x10+x18-y10_18 <=1 
C335: x10+x19 <=1 
C336: x10+x20-y10_20 <=1 
C337: x10+x22 <=1 
C338: x10+x24 <=1 
C339: x10+x25-y10_25 <=1 
C340: x10+x27-y10_27 <=1 
C341: x10+x33-y10_33 <=1 
C342: x10+x34-y10_34 <=1 
C343: x10+x36-y10_36 <=1 
C344: x10+x38 <=1 
C345: x10+x40 <=1 
C346: x10+x44 <=1 
C347: x10+x45-y10_45 <=1 
C348: x10+x46-y10_46 <=1 
C349: x10+x47 <=1 
C350: x10+x48-y10_48 <=1 
C351: x10+x50-y10_50 <=1 
C352: x10+x51 <=1 
C353: x10+x53 <=1 
C354: x10+x55 <=1 
C355: x10+x57-y10_57 <=1 
C356: x10+x58-y10_58 <=1 
C357: x10+x59 <=1 
C358: x11+x12-y11_12 <=1 
C359: x11+x14 <=1 
C360: x11+x16-y11_16 <=1 
C361: x11+x21 <=1 
C362: x11+x22 <=1 
C363: x11+x24-y11_24 <=1 
C364: x11+x25-y11_25 <=1 
C365: x11+x26 <=1 
C366: x11+x27-y11_27 <=1 
C367: x11+x29-y11_29 <=1 
C368: x11+x30-y11_30 <=1 
C369: x11+x32-y11_32 <=1 
C370: x11+x33-y11_33 <=1 
C371: x11+x34 <=1 
C372: x11+x35-y11_35 <=1 
C373: x11+x37-y11_37 <=1 
C374: x11+x38-y11_38 <=1 
C375: x11+x39-y11_39 <=1 
C376: x11+x41-y11_41 <=1 
C377: x11+x42 <=1 
C378: x11+x44 <=1 
C379: x11+x46-y11_46 <=1 
C380: x11+x49 <=1 
C381: x11+x51-y11_51 <=1 
C382: x11+x52-y11_52 <=1 
C383: x11+x53-y11_53 <=1 
C384: x11+x55-y11_55 <=1 
C385: x11+x58 <=1 
C386: x11+x59 <=1 
C387: x12+x14-y12_14 <=1 
C388: x12+x17-y12_17 <=1 
C389: x12+x18 <=1 
C390: x12+x20 <=1 
C391: x12+x21 <=1 
C392: x12+x24-y12_24 <=1 
C393: x12+x25 <=1 
C394: x12+x26 <=1 
C395: x12+x29 <=1 
C396: x12+x30-y12_30 <=1 
C397: x12+x32 <=1 
C398: x12+x36-y12_36 <=1 
C399: x12+x37 <=1 
C400: x12+x38 <=1 
C401: x12+x40-y12_40 <=1 
C402: x12+x44 <=1 
C403: x12+x45-y12_45 <=1 
C404: x12+x47 <=1 
C405: x12+x48-y12_48 <=1 
C406: x12+x54-y12_54 <=1 
C407: x12+x57 <=1 
C408: x12+x58 <=1 
C409: x13+x15-y13_15 <=1 
C410: x13+x17-y13_17 <=1 
C411: x13+x18-y13_18 <=1 
C412: x13+x20-y13_20 <=1 
C413: x13+x21 <=1 
C414: x13+x22-y13_22 <=1 
C415: x13+x23 <=1 
C416: x13+x25 <=1 
C417: x13+x26 <=1 
C418: x13+x28 <=1 
C419: x13+x29-y13_29 <=1 
C420: x13+x31 <=1 
C421: x13+x35-y13_35 <=1 
C422: x13+x37 <=1 
C423: x13+x38-y13_38 <=1 
C424: x13+x41 <=1 
C425: x13+x44-y13_44 <=1 
C426: x13+x45 <=1 
C427: x13+x46 <=1 
C428: x13+x48 <=1 
C429: x13+x49-y13_49 <=1 
C430: x13+x50-y13_50 <=1 
C431: x13+x51-y13_51 <=1 
C432: x13+x54 <=1 
C433: x13+x55 <=1 
C434: x13+x57-y13_57 <=1 
C435: x13+x58-y13_58 <=1 
C436: x13+x59 <=1 
C437: x14+x15-y14_15 <=1 
C438: x14+x18-y14_18 <=1 
C439: x14+x19-y14_19 <=1 
C440: x14+x20 <=1 
C441: x14+x23 <=1 
C442: x14+x24 <=1 
C443: x14+x25 <=1 
C444: x14+x26-y14_26 <=1 
C445: x14+x27-y14_27 <=1 
C446: x14+x28-y14_28 <=1 
C447: x14+x29 <=1 
C448: x14+x30 <=1 
C449: x14+x31 <=1 
C450: x14+x32 <=1 
C451: x14+x33 <=1 
C452: x14+x34 <=1 
C453: x14+x36 <=1 
C454: x14+x40-y14_40 <=1 
C455: x14+x41-y14_41 <=1 
C456: x14+x43-y14_43 <=1 
C457: x14+x45-y14_45 <=1 
C458: x14+x47-y14_47 <=1 
C459: x14+x48-y14_48 <=1 
C460: x14+x49-y14_49 <=1 
C461: x14+x50 <=1 
C462: x14+x52 <=1 
C463: x14+x53-y14_53 <=1 
C464: x14+x54 <=1 
C465: x14+x56 <=1 
C466: x14+x59-y14_59 <=1 
C467: x15+x16 <=1 
C468: x15+x17-y15_17 <=1 
C469: x15+x18-y15_18 <=1 
C470: x15+x19-y15_19 <=1 
C471: x15+x20-y15_20 <=1 
C472: x15+x21-y15_21 <=1 
C473: x15+x22 <=1 
C474: x15+x23 <=1 
C475: x15+x24 <=1 
C476: x15+x25 <=1 
C477: x15+x26 <=1 
C478: x15+x27 <=1 
C479: x15+x29-y15_29 <=1 
C480: x15+x31-y15_31 <=1 
C481: x15+x32 <=1 
C482: x15+x33 <=1 
C483: x15+x34 <=1 
C484: x15+x36 <=1 
C485: x15+x37-y15_37 <=1 
C486: x15+x38-y15_38 <=1 
C487: x15+x39-y15_39 <=1 
C488: x15+x41-y15_41 <=1 
C489: x15+x42 <=1 
C490: x15+x45 <=1 
C491: x15+x46-y15_46 <=1 
C492: x15+x49 <=1 
C493: x15+x50 <=1 
C494: x15+x51-y15_51 <=1 
C495: x15+x54 <=1 
C496: x15+x55-y15_55 <=1 
C497: x15+x56 <=1 
C498: x15+x57-y15_57 <=1 
C499: x15+x59 <=1 
C500: x16+x19 <=1 
C501: x16+x23 <=1 
C502: x16+x25 <=1 
C503: x16+x26 <=1 
C504: x16+x28-y16_28 <=1 
C505: x16+x31 <=1 
C506: x16+x35-y16_35 <=1 
C507: x16+x37-y16_37 <=1 
C508: x16+x39-y16_39 <=1 
C509: x16+x40-y16_40 <=1 
C510: x16+x45-y16_45 <=1 
C511: x16+x46 <=1 
C512: x16+x47-y16_47 <=1 
C513: x16+x49 <=1 
C514: x16+x50-y16_50 <=1 
C515: x16+x51 <=1 
C516: x16+x52-y16_52 <=1 
C517: x16+x53 <=1 
C518: x16+x54-y16_54 <=1 
C519: x16+x55 <=1 
C520: x16+x56 <=1 
C521: x17+x18-y17_18 <=1 
C522: x17+x20 <=1 
C523: x17+x21 <=1 
C524: x17+x23 <=1 
C525: x17+x24 <=1 
C526: x17+x25-y17_25 <=1 
C527: x17+x28-y17_28 <=1 
C528: x17+x29 <=1 
C529: x17+x30-y17_30 <=1 
C530: x17+x31 <=1 
C531: x17+x32 <=1 
C532: x17+x33-y17_33 <=1 
C533: x17+x34 <=1 
C534: x17+x35-y17_35 <=1 
C535: x17+x36 <=1 
C536: x17+x38-y17_38 <=1 
C537: x17+x40-y17_40 <=1 
C538: x17+x43-y17_43 <=1 
C539: x17+x44 <=1 
C540: x17+x45-y17_45 <=1 
C541: x17+x46-y17_46 <=1 
C542: x17+x47-y17_47 <=1 
C543: x17+x50-y17_50 <=1 
C544: x17+x56-y17_56 <=1 
C545: x17+x57 <=1 
C546: x17+x58-y17_58 <=1 
C547: x18+x19 <=1 
C548: x18+x20-y18_20 <=1 
C549: x18+x22-y18_22 <=1 
C550: x18+x25-y18_25 <=1 
C551: x18+x26-y18_26 <=1 
C552: x18+x29 <=1 
C553: x18+x30 <=1 
C554: x18+x31 <=1 
C555: x18+x32-y18_32 <=1 
C556: x18+x33-y18_33 <=1 
C557: x18+x35-y18_35 <=1 
C558: x18+x36-y18_36 <=1 
C559: x18+x38-y18_38 <=1 
C560: x18+x40-y18_40 <=1 
C561: x18+x41-y18_41 <=1 
C562: x18+x42 <=1 
C563: x18+x47-y18_47 <=1 
C564: x18+x48 <=1 
C565: x18+x49-y18_49 <=1 
C566: x18+x51-y18_51 <=1 
C567: x18+x52 <=1 
C568: x18+x53 <=1 
C569: x18+x54 <=1 
C570: x18+x56 <=1 
C571: x18+x58-y18_58 <=1 
C572: x18+x59-y18_59 <=1 
C573: x19+x21-y19_21 <=1 
C574: x19+x22 <=1 
C575: x19+x25-y19_25 <=1 
C576: x19+x27-y19_27 <=1 
C577: x19+x35 <=1 
C578: x19+x36-y19_36 <=1 
C579: x19+x37-y19_37 <=1 
C580: x19+x40-y19_40 <=1 
C581: x19+x41 <=1 
C582: x19+x43 <=1 
C583: x19+x46 <=1 
C584: x19+x47-y19_47 <=1 
C585: x19+x48 <=1 
C586: x19+x49 <=1 
C587: x19+x50 <=1 
C588: x19+x51 <=1 
C589: x19+x52-y19_52 <=1 
C590: x19+x53 <=1 
C591: x19+x54-y19_54 <=1 
C592: x19+x55-y19_55 <=1 
C593: x19+x57 <=1 
C594: x19+x58 <=1 
C595: x19+x59 <=1 
C596: x20+x21 <=1 
C597: x20+x23 <=1 
C598: x20+x24-y20_24 <=1 
C599: x20+x25 <=1 
C600: x20+x26-y20_26 <=1 
C601: x20+x30-y20_30 <=1 
C602: x20+x35-y20_35 <=1 
C603: x20+x36 <=1 
C604: x20+x37-y20_37 <=1 
C605: x20+x42 <=1 
C606: x20+x45-y20_45 <=1 
C607: x20+x46-y20_46 <=1 
C608: x20+x48-y20_48 <=1 
C609: x20+x52-y20_52 <=1 
C610: x20+x53-y20_53 <=1 
C611: x20+x54-y20_54 <=1 
C612: x20+x55-y20_55 <=1 
C613: x20+x57 <=1 
C614: x20+x59-y20_59 <=1 
C615: x21+x25-y21_25 <=1 
C616: x21+x27 <=1 
C617: x21+x28-y21_28 <=1 
C618: x21+x30-y21_30 <=1 
C619: x21+x31 <=1 
C620: x21+x32 <=1 
C621: x21+x33-y21_33 <=1 
C622: x21+x34 <=1 
C623: x21+x36 <=1 
C624: x21+x40 <=1 
C625: x21+x41-y21_41 <=1 
C626: x21+x42-y21_42 <=1 
C627: x21+x43-y21_43 <=1 
C628: x21+x44-y21_44 <=1 
C629: x21+x46 <=1 
C630: x21+x49 <=1 
C631: x21+x50-y21_50 <=1 
C632: x21+x51 <=1 
C633: x21+x52 <=1 
C634: x21+x53-y21_53 <=1 
C635: x21+x54-y21_54 <=1 
C636: x21+x55-y21_55 <=1 
C637: x21+x57 <=1 
C638: x21+x58 <=1 
C639: x22+x25-y22_25 <=1 
C640: x22+x27-y22_27 <=1 
C641: x22+x28-y22_28 <=1 
C642: x22+x30 <=1 
C643: x22+x31 <=1 
C644: x22+x32 <=1 
C645: x22+x33 <=1 
C646: x22+x35 <=1 
C647: x22+x37 <=1 
C648: x22+x38 <=1 
C649: x22+x39 <=1 
C650: x22+x40-y22_40 <=1 
C651: x22+x44 <=1 
C652: x22+x47 <=1 
C653: x22+x48-y22_48 <=1 
C654: x22+x49 <=1 
C655: x22+x50-y22_50 <=1 
C656: x22+x52 <=1 
C657: x22+x53 <=1 
C658: x22+x54 <=1 
C659: x22+x55 <=1 
C660: x22+x56 <=1 
C661: x22+x59 <=1 
C662: x23+x26 <=1 
C663: x23+x27 <=1 
C664: x23+x28-y23_28 <=1 
C665: x23+x29 <=1 
C666: x23+x31-y23_31 <=1 
C667: x23+x32-y23_32 <=1 
C668: x23+x33-y23_33 <=1 
C669: x23+x37-y23_37 <=1 
C670: x23+x38 <=1 
C671: x23+x42 <=1 
C672: x23+x43 <=1 
C673: x23+x44 <=1 
C674: x23+x45-y23_45 <=1 
C675: x23+x46 <=1 
C676: x23+x49 <=1 
C677: x23+x51 <=1 
C678: x23+x52 <=1 
C679: x23+x57 <=1 
C680: x23+x58 <=1 
C681: x23+x59 <=1 
C682: x24+x26 <=1 
C683: x24+x31-y24_31 <=1 
C684: x24+x32 <=1 
C685: x24+x34 <=1 
C686: x24+x35-y24_35 <=1 
C687: x24+x36-y24_36 <=1 
C688: x24+x44-y24_44 <=1 
C689: x24+x45-y24_45 <=1 
C690: x24+x46 <=1 
C691: x24+x48 <=1 
C692: x24+x50 <=1 
C693: x24+x51-y24_51 <=1 
C694: x24+x52-y24_52 <=1 
C695: x24+x53 <=1 
C696: x24+x54-y24_54 <=1 
C697: x24+x57 <=1 
C698: x24+x59-y24_59 <=1 
C699: x25+x26-y25_26 <=1 
C700: x25+x27 <=1 
C701: x25+x28 <=1 
C702: x25+x29 <=1 
C703: x25+x32 <=1 
C704: x25+x33-y25_33 <=1 
C705: x25+x36-y25_36 <=1 
C706: x25+x38 <=1 
C707: x25+x39 <=1 
C708: x25+x44 <=1 
C709: x25+x45-y25_45 <=1 
C710: x25+x46-y25_46 <=1 
C711: x25+x47-y25_47 <=1 
C712: x25+x54 <=1 
C713: x25+x59-y25_59 <=1 
C714: x26+x31-y26_31 <=1 
C715: x26+x32 <=1 
C716: x26+x37 <=1 
C717: x26+x38 <=1 
C718: x26+x40-y26_40 <=1 
C719: x26+x41-y26_41 <=1 
C720: x26+x42-y26_42 <=1 
C721: x26+x44-y26_44 <=1 
C722: x26+x46 <=1 
C723: x26+x47 <=1 
C724: x26+x48 <=1 
C725: x26+x49-y26_49 <=1 
C726: x26+x52 <=1 
C727: x26+x53-y26_53 <=1 
C728: x26+x55-y26_55 <=1 
C729: x26+x56 <=1 
C730: x26+x57-y26_57 <=1 
C731: x26+x59-y26_59 <=1 
C732: x27+x29-y27_29 <=1 
C733: x27+x31 <=1 
C734: x27+x32 <=1 
C735: x27+x35-y27_35 <=1 
C736: x27+x36-y27_36 <=1 
C737: x27+x37 <=1 
C738: x27+x38 <=1 
C739: x27+x41 <=1 
C740: x27+x42-y27_42 <=1 
C741: x27+x45 <=1 
C742: x27+x47 <=1 
C743: x27+x48-y27_48 <=1 
C744: x27+x49 <=1 
C745: x27+x51-y27_51 <=1 
C746: x27+x52-y27_52 <=1 
C747: x27+x53 <=1 
C748: x27+x54-y27_54 <=1 
C749: x27+x57-y27_57 <=1 
C750: x28+x29 <=1 
C751: x28+x32 <=1 
C752: x28+x33 <=1 
C753: x28+x35-y28_35 <=1 
C754: x28+x36 <=1 
C755: x28+x37-y28_37 <=1 
C756: x28+x38 <=1 
C757: x28+x39-y28_39 <=1 
C758: x28+x41-y28_41 <=1 
C759: x28+x42-y28_42 <=1 
C760: x28+x43-y28_43 <=1 
C761: x28+x46-y28_46 <=1 
C762: x28+x47-y28_47 <=1 
C763: x28+x49 <=1 
C764: x28+x51-y28_51 <=1 
C765: x28+x52-y28_52 <=1 
C766: x28+x54 <=1 
C767: x28+x59 <=1 
C768: x29+x32-y29_32 <=1 
C769: x29+x33-y29_33 <=1 
C770: x29+x35-y29_35 <=1 
C771: x29+x38-y29_38 <=1 
C772: x29+x39-y29_39 <=1 
C773: x29+x40-y29_40 <=1 
C774: x29+x41 <=1 
C775: x29+x45 <=1 
C776: x29+x48 <=1 
C777: x29+x51-y29_51 <=1 
C778: x29+x52 <=1 
C779: x29+x54 <=1 
C780: x29+x55 <=1 
C781: x29+x56-y29_56 <=1 
C782: x30+x31-y30_31 <=1 
C783: x30+x32-y30_32 <=1 
C784: x30+x34 <=1 
C785: x30+x36 <=1 
C786: x30+x37 <=1 
C787: x30+x38-y30_38 <=1 
C788: x30+x39 <=1 
C789: x30+x43 <=1 
C790: x30+x44 <=1 
C791: x30+x46-y30_46 <=1 
C792: x30+x47-y30_47 <=1 
C793: x30+x51 <=1 
C794: x30+x52 <=1 
C795: x30+x56-y30_56 <=1 
C796: x30+x57-y30_57 <=1 
C797: x30+x59 <=1 
C798: x31+x33 <=1 
C799: x31+x34-y31_34 <=1 
C800: x31+x35 <=1 
C801: x31+x36-y31_36 <=1 
C802: x31+x37-y31_37 <=1 
C803: x31+x39 <=1 
C804: x31+x40-y31_40 <=1 
C805: x31+x41 <=1 
C806: x31+x42 <=1 
C807: x31+x44 <=1 
C808: x31+x46-y31_46 <=1 
C809: x31+x47-y31_47 <=1 
C810: x31+x49-y31_49 <=1 
C811: x31+x50 <=1 
C812: x31+x51-y31_51 <=1 
C813: x31+x52-y31_52 <=1 
C814: x31+x53-y31_53 <=1 
C815: x31+x54-y31_54 <=1 
C816: x31+x55 <=1 
C817: x31+x56-y31_56 <=1 
C818: x31+x57 <=1 
C819: x31+x59-y31_59 <=1 
C820: x32+x33-y32_33 <=1 
C821: x32+x34 <=1 
C822: x32+x35 <=1 
C823: x32+x36-y32_36 <=1 
C824: x32+x38-y32_38 <=1 
C825: x32+x39-y32_39 <=1 
C826: x32+x40 <=1 
C827: x32+x41-y32_41 <=1 
C828: x32+x43 <=1 
C829: x32+x44-y32_44 <=1 
C830: x32+x45 <=1 
C831: x32+x48 <=1 
C832: x32+x49-y32_49 <=1 
C833: x32+x50 <=1 
C834: x32+x52 <=1 
C835: x32+x53-y32_53 <=1 
C836: x32+x55 <=1 
C837: x32+x58-y32_58 <=1 
C838: x32+x59 <=1 
C839: x33+x34-y33_34 <=1 
C840: x33+x35 <=1 
C841: x33+x36 <=1 
C842: x33+x37 <=1 
C843: x33+x39 <=1 
C844: x33+x40 <=1 
C845: x33+x41 <=1 
C846: x33+x42-y33_42 <=1 
C847: x33+x43-y33_43 <=1 
C848: x33+x44 <=1 
C849: x33+x45 <=1 
C850: x33+x46 <=1 
C851: x33+x50 <=1 
C852: x33+x51 <=1 
C853: x33+x53-y33_53 <=1 
C854: x33+x54 <=1 
C855: x33+x56-y33_56 <=1 
C856: x33+x57 <=1 
C857: x33+x58-y33_58 <=1 
C858: x33+x59-y33_59 <=1 
C859: x34+x35-y34_35 <=1 
C860: x34+x38-y34_38 <=1 
C861: x34+x39 <=1 
C862: x34+x41-y34_41 <=1 
C863: x34+x42-y34_42 <=1 
C864: x34+x43 <=1 
C865: x34+x46 <=1 
C866: x34+x49-y34_49 <=1 
C867: x34+x51-y34_51 <=1 
C868: x34+x52 <=1 
C869: x34+x53-y34_53 <=1 
C870: x34+x55-y34_55 <=1 
C871: x34+x56-y34_56 <=1 
C872: x34+x57 <=1 
C873: x34+x59-y34_59 <=1 
C874: x35+x37-y35_37 <=1 
C875: x35+x38 <=1 
C876: x35+x39-y35_39 <=1 
C877: x35+x41-y35_41 <=1 
C878: x35+x42 <=1 
C879: x35+x44 <=1 
C880: x35+x45-y35_45 <=1 
C881: x35+x46 <=1 
C882: x35+x48-y35_48 <=1 
C883: x35+x50 <=1 
C884: x35+x54-y35_54 <=1 
C885: x35+x57 <=1 
C886: x36+x37-y36_37 <=1 
C887: x36+x38-y36_38 <=1 
C888: x36+x39-y36_39 <=1 
C889: x36+x41-y36_41 <=1 
C890: x36+x43 <=1 
C891: x36+x44 <=1 
C892: x36+x46 <=1 
C893: x36+x47 <=1 
C894: x36+x48 <=1 
C895: x36+x49 <=1 
C896: x36+x54-y36_54 <=1 
C897: x36+x57 <=1 
C898: x37+x38-y37_38 <=1 
C899: x37+x39-y37_39 <=1 
C900: x37+x40 <=1 
C901: x37+x41-y37_41 <=1 
C902: x37+x43-y37_43 <=1 
C903: x37+x45 <=1 
C904: x37+x46 <=1 
C905: x37+x48 <=1 
C906: x37+x49-y37_49 <=1 
C907: x37+x52 <=1 
C908: x37+x54 <=1 
C909: x37+x59 <=1 
C910: x38+x40-y38_40 <=1 
C911: x38+x41 <=1 
C912: x38+x44 <=1 
C913: x38+x46 <=1 
C914: x38+x50 <=1 
C915: x38+x56 <=1 
C916: x38+x58-y38_58 <=1 
C917: x38+x59-y38_59 <=1 
C918: x39+x40-y39_40 <=1 
C919: x39+x41 <=1 
C920: x39+x42-y39_42 <=1 
C921: x39+x43-y39_43 <=1 
C922: x39+x44 <=1 
C923: x39+x45 <=1 
C924: x39+x46 <=1 
C925: x39+x47 <=1 
C926: x39+x48 <=1 
C927: x39+x49 <=1 
C928: x39+x51-y39_51 <=1 
C929: x39+x53 <=1 
C930: x39+x54-y39_54 <=1 
C931: x39+x56-y39_56 <=1 
C932: x39+x59-y39_59 <=1 
C933: x40+x43 <=1 
C934: x40+x44-y40_44 <=1 
C935: x40+x45 <=1 
C936: x40+x46-y40_46 <=1 
C937: x40+x48-y40_48 <=1 
C938: x40+x49 <=1 
C939: x40+x50 <=1 
C940: x40+x51 <=1 
C941: x40+x52-y40_52 <=1 
C942: x40+x53-y40_53 <=1 
C943: x40+x54 <=1 
C944: x40+x56 <=1 
C945: x40+x58 <=1 
C946: x40+x59 <=1 
C947: x41+x42 <=1 
C948: x41+x44-y41_44 <=1 
C949: x41+x45 <=1 
C950: x41+x47-y41_47 <=1 
C951: x41+x48-y41_48 <=1 
C952: x41+x50-y41_50 <=1 
C953: x41+x51-y41_51 <=1 
C954: x41+x52-y41_52 <=1 
C955: x41+x53 <=1 
C956: x41+x56 <=1 
C957: x41+x58 <=1 
C958: x42+x43-y42_43 <=1 
C959: x42+x44-y42_44 <=1 
C960: x42+x45-y42_45 <=1 
C961: x42+x46-y42_46 <=1 
C962: x42+x47 <=1 
C963: x42+x51-y42_51 <=1 
C964: x42+x54-y42_54 <=1 
C965: x42+x55-y42_55 <=1 
C966: x43+x44 <=1 
C967: x43+x45-y43_45 <=1 
C968: x43+x46-y43_46 <=1 
C969: x43+x48-y43_48 <=1 
C970: x43+x49-y43_49 <=1 
C971: x43+x50-y43_50 <=1 
C972: x43+x52-y43_52 <=1 
C973: x43+x56-y43_56 <=1 
C974: x43+x58 <=1 
C975: x44+x45 <=1 
C976: x44+x49-y44_49 <=1 
C977: x44+x52-y44_52 <=1 
C978: x44+x57-y44_57 <=1 
C979: x44+x58 <=1 
C980: x45+x50 <=1 
C981: x45+x51 <=1 
C982: x45+x52-y45_52 <=1 
C983: x45+x53-y45_53 <=1 
C984: x45+x58 <=1 
C985: x45+x59-y45_59 <=1 
C986: x46+x47-y46_47 <=1 
C987: x46+x48 <=1 
C988: x46+x49 <=1 
C989: x46+x51-y46_51 <=1 
C990: x46+x52 <=1 
C991: x46+x53-y46_53 <=1 
C992: x46+x56 <=1 
C993: x46+x58 <=1 
C994: x46+x59 <=1 
C995: x47+x49 <=1 
C996: x47+x52-y47_52 <=1 
C997: x47+x53 <=1 
C998: x47+x54 <=1 
C999: x47+x57-y47_57 <=1 
C1000: x47+x59 <=1 
C1001: x48+x49-y48_49 <=1 
C1002: x48+x51-y48_51 <=1 
C1003: x48+x53-y48_53 <=1 
C1004: x48+x57-y48_57 <=1 
C1005: x48+x59 <=1 
C1006: x49+x50 <=1 
C1007: x49+x55 <=1 
C1008: x49+x57 <=1 
C1009: x49+x58 <=1 
C1010: x49+x59-y49_59 <=1 
C1011: x50+x51 <=1 
C1012: x50+x53-y50_53 <=1 
C1013: x50+x55 <=1 
C1014: x50+x57-y50_57 <=1 
C1015: x50+x58 <=1 
C1016: x51+x52-y51_52 <=1 
C1017: x51+x53 <=1 
C1018: x51+x54 <=1 
C1019: x51+x57 <=1 
C1020: x52+x54-y52_54 <=1 
C1021: x52+x55 <=1 
C1022: x52+x56-y52_56 <=1 
C1023: x52+x57 <=1 
C1024: x52+x58 <=1 
C1025: x52+x59-y52_59 <=1 
C1026: x53+x55-y53_55 <=1 
C1027: x53+x57-y53_57 <=1 
C1028: x53+x58 <=1 
C1029: x54+x55-y54_55 <=1 
C1030: x54+x56-y54_56 <=1 
C1031: x54+x57-y54_57 <=1 
C1032: x54+x58 <=1 
C1033: x54+x59-y54_59 <=1 
C1034: x55+x56 <=1 
C1035: x55+x57-y55_57 <=1 
C1036: x55+x58 <=1 
C1037: x55+x59-y55_59 <=1 
C1038: x56+x57 <=1 
C1039: x56+x58 <=1 
C1040: x57+x58-y57_58 <=1 
C1041: x57+x59 <=1 
C1042: x58+x59-y58_59 <=1 

binary
x0
x1
x2
x3
x4
x5
x6
x7
x8
x9
x10
x11
x12
x13
x14
x15
x16
x17
x18
x19
x20
x21
x22
x23
x24
x25
x26
x27
x28
x29
x30
x31
x32
x33
x34
x35
x36
x37
x38
x39
x40
x41
x42
x43
x44
x45
x46
x47
x48
x49
x50
x51
x52
x53
x54
x55
x56
x57
x58
x59
