problem_generation/data/GISP/train/er_n=60_m=1042_p=0.60_SET2_setparam=100.00_alpha=0.50_373.sol
objective value:                                 1171
x5                                                  1 	(obj:100)
x9                                                  1 	(obj:100)
x12                                                 1 	(obj:100)
x14                                                 1 	(obj:100)
x15                                                 1 	(obj:100)
x17                                                 1 	(obj:100)
x35                                                 1 	(obj:100)
x41                                                 1 	(obj:100)
x43                                                 1 	(obj:100)
x48                                                 1 	(obj:100)
x51                                                 1 	(obj:100)
x55                                                 1 	(obj:100)
y41_51                                              1 	(obj:-1)
y14_15                                              1 	(obj:-1)
y5_55                                               1 	(obj:-1)
y17_43                                              1 	(obj:-1)
y9_48                                               1 	(obj:-1)
y35_41                                              1 	(obj:-1)
y9_43                                               1 	(obj:-1)
y12_48                                              1 	(obj:-1)
y5_35                                               1 	(obj:-1)
y12_14                                              1 	(obj:-1)
y14_41                                              1 	(obj:-1)
y15_51                                              1 	(obj:-1)
y9_51                                               1 	(obj:-1)
y48_51                                              1 	(obj:-1)
y43_48                                              1 	(obj:-1)
y5_48                                               1 	(obj:-1)
y9_55                                               1 	(obj:-1)
y35_48                                              1 	(obj:-1)
y5_43                                               1 	(obj:-1)
y17_35                                              1 	(obj:-1)
y9_35                                               1 	(obj:-1)
y5_14                                               1 	(obj:-1)
y15_55                                              1 	(obj:-1)
y15_41                                              1 	(obj:-1)
y12_17                                              1 	(obj:-1)
y41_48                                              1 	(obj:-1)
y14_48                                              1 	(obj:-1)
y14_43                                              1 	(obj:-1)
y15_17                                              1 	(obj:-1)
